# x 70 50
0 0 0 0 0 0 0 -0 0 0 0 0 0 -0 0 0 0 0 0 0 0 0 0 0 0 0 0 0 0 -0 0 0 0 0 0 0 0 -0 0 0 0 0 0 0 0 0 0 -0 0 1 
0 -0 0 1 0 -0 0 0 0 0 0 0 0 0 0 0 0 0 0 0 0 0 0 0 0 -0 0 -0 -0 0 0 -0 0 -0 0 0 -0 0 0 0 0 0 0 0 0 -0 0 0 -0 0 
0 0 0 0 0 0 0 -0 0 0 0 0 0 -0 0 -0 0 0 0 0 0 0 0 0 0 0 0 0 0 -0 0 0 0 0 0 0 0 0 0 0 0 0 0 0 0 0 0 -0 0 1 
0 0 0 0 0 0 0 0 0 0 0 -0 0 0 0 0 0 -0 0 0 -0 0 0 0 0 0 0 0 0 0 0 0 0 0 0 0 0 0 0 0 0 0 -0 0 1 0 0 0 0 0 
1 0 -0 0 0 0 0 0 0 0 0 0 0 0 -0 0 0 0 0 -0 0 0 0 0 0 0 0 0 0 0 0 0 -0 0 -0 0 0 0 0 0 -0 0 0 0 0 0 0 0 0 0 
0 0 0 0 0 0 0 0 0 0 0 -0 -0 0 0 0 0 -0 -0 0 -0 0 0 0 -0 0 0 0 0 0 0 0 0 0 0 0 0 0 0 0 0 -0 0 0 0 0 1 0 0 0 
0 0 0 0 0 0 0 0 0 -0 0 -0 0 0 0 0 -0 0 0 0 -0 0 0 -0 0 0 0 0 0 0 -0 0 0 0 0 0 0 0 0 -0 0 0 -0 -0 0 0 1 0 0 0 
0 0 0 0 -0 0 0 0 0 0 0 -0 0 0 0 0 0 0 0 0 -0 0 0 0 0 0 0 0 0 0 -0 0 0 0 0 0 0 0 0 -0 0 0 0 0 1 0 0 0 0 0 
0 0 0 0 0 0 -0 0 0 -0 0 0 0 0 0 0 0 0 0 0 0 0 0 0 0 0 0 0 0 0 -0 0 0 0 0 0 0 0 0 -0 0 0 -0 0 1 0 0 0 0 0 
0 0 0 0 0 0 0 -0 0 0 0 0 0 -0 0 -0 -0 0 0 0 0 0 0 0 0 0 0 0 0 -0 0 0 0 0 0 0 0 -0 0 0 0 0 0 0 0 0 1 -0 0 0 
0 -0 0 1 0 0 0 0 0 0 -0 0 0 0 0 0 0 0 0 0 0 -0 -0 0 0 0 0 0 -0 0 0 -0 0 -0 0 0 -0 0 0 0 0 0 0 0 0 0 0 0 -0 0 
0 0 0 0 0 0 0 0 0 0 0 0 0 0 0 -0 -0 -0 -0 0 -0 0 0 0 -0 0 0 0 0 -0 0 0 0 0 0 0 0 0 0 0 0 -0 0 0 0 0 1 -0 0 0 
0 0 0 0 0 0 0 -0 0 0 0 0 0 -0 0 -0 -0 0 0 0 0 0 0 0 0 0 -0 0 0 -0 0 0 0 0 0 0 0 -0 0 0 0 0 0 0 0 0 1 -0 0 0 
1 -0 -0 0 0 -0 0 0 0 0 0 0 0 0 -0 0 0 0 0 -0 0 0 0 0 0 0 0 -0 0 0 0 0 -0 0 -0 0 0 0 -0 0 0 -0 0 0 0 -0 0 0 0 0 
0 -0 0 1 0 0 0 0 0 0 -0 0 0 0 0 0 0 -0 -0 0 0 0 0 0 -0 0 0 -0 0 0 0 0 0 -0 0 0 0 0 0 0 0 -0 0 0 0 -0 0 -0 0 0 
0 0 0 0 0 0 0 -0 0 0 0 0 0 -0 0 -0 -0 -0 0 0 -0 0 0 0 0 0 0 0 0 -0 0 0 0 0 0 0 0 0 0 0 0 0 0 0 0 0 1 -0 0 0 
0 0 0 0 0 0 0 -0 0 0 0 0 0 -0 0 -0 -0 0 0 0 0 0 0 0 0 0 0 0 0 -0 0 0 0 0 0 0 0 -0 0 0 0 0 0 0 0 0 1 -0 0 0 
0 0 0 0 0 0 0 0 -0 0 -0 0 0 0 0 0 0 0 0 0 0 -0 -0 0 0 0 0 0 -0 0 0 -0 0 0 0 0 -0 0 0 0 0 0 0 0 0 0 0 0 0 1 
1 0 -0 0 0 0 0 0 0 0 0 0 -0 0 -0 0 0 0 0 -0 0 0 0 0 0 0 0 0 0 0 0 0 -0 0 -0 0 0 0 0 0 -0 0 0 0 0 0 0 0 0 0 
0 0 0 0 0 0 0 0 0 0 0 0 0 0 0 -0 -0 -0 0 0 -0 0 0 0 0 0 0 0 0 0 0 0 0 0 0 0 0 0 0 0 0 0 0 0 0 0 1 -0 0 0 
0 0 0 0 0 0 0 -0 -0 0 -0 0 0 0 0 0 0 0 0 0 0 -0 0 0 0 0 0 0 0 0 0 0 0 0 0 0 0 0 0 0 0 0 0 0 0 0 0 0 0 1 
0 -0 -0 1 0 -0 0 0 0 0 0 0 0 0 0 0 0 0 0 -0 0 0 0 0 0 -0 0 -0 0 0 0 0 0 -0 -0 0 0 0 -0 0 0 0 0 0 0 -0 0 0 -0 0 
1 0 -0 0 -0 0 0 0 0 0 0 0 -0 0 0 0 0 0 0 0 0 0 0 0 0 0 0 0 0 0 0 0 0 0 -0 -0 0 0 0 0 -0 0 0 0 0 0 0 0 0 0 
0 0 0 0 0 0 0 0 -0 0 -0 0 0 0 0 0 0 0 0 0 0 -0 -0 0 0 0 0 0 0 0 0 0 0 0 0 0 0 0 0 0 0 0 0 0 0 0 0 0 0 1 
1 0 -0 0 0 0 0 0 0 0 0 0 -0 0 0 0 0 0 0 0 0 0 0 0 0 0 0 0 0 0 0 0 0 0 -0 0 0 0 0 0 -0 -0 0 0 0 0 0 0 0 0 
0 0 0 0 0 0 0 0 0 0 0 0 0 -0 0 -0 -0 0 0 0 0 0 0 0 0 0 -0 0 0 0 0 0 0 0 0 0 0 -0 0 0 0 0 0 0 0 0 1 -0 0 0 
1 0 -0 0 0 0 0 0 0 0 0 0 -0 0 -0 0 0 0 0 -0 0 0 0 0 0 0 0 0 0 0 0 0 -0 0 -0 0 0 0 -0 0 -0 0 0 0 0 0 0 0 0 0 
0 0 0 0 0 0 0 -0 0 0 0 0 0 -0 0 -0 0 0 0 0 0 0 0 0 0 0 0 0 0 -0 0 0 0 0 0 0 0 -0 0 0 0 0 0 0 0 0 0 -0 0 1 
1 0 0 0 -0 0 0 0 0 0 0 0 -0 0 0 0 0 0 0 0 0 0 0 0 0 0 0 0 0 0 0 0 0 0 0 -0 0 0 0 0 -0 0 0 0 -0 0 0 0 0 0 
0 0 0 0 0 0 0 -0 -0 0 -0 0 0 0 0 0 0 0 0 0 0 0 0 0 0 0 0 0 0 0 0 0 0 0 0 0 0 0 0 0 0 0 0 0 0 0 0 0 0 1 
0 0 0 0 0 0 0 -0 -0 0 0 0 0 -0 0 0 0 0 0 0 0 0 0 0 0 0 0 0 0 -0 0 0 0 0 0 0 0 0 0 0 0 0 0 0 0 0 0 -0 0 1 
0 0 0 0 0 0 -0 0 0 -0 0 -0 0 0 0 0 0 0 0 0 0 0 0 -0 0 0 0 0 0 0 -0 0 0 0 0 0 0 0 0 -0 0 0 -0 -0 1 0 0 0 0 0 
0 0 0 0 -0 0 0 0 0 0 0 -0 -0 0 0 0 0 -0 -0 0 -0 0 0 0 -0 0 0 0 0 0 0 0 0 0 0 0 0 0 0 0 0 -0 0 0 0 0 1 0 0 0 
0 0 0 0 -0 0 0 0 0 0 0 -0 0 0 0 0 0 0 0 0 0 0 0 0 0 0 0 0 0 0 -0 0 0 0 0 -0 0 0 0 -0 0 0 0 0 1 0 0 0 0 0 
1 -0 -0 0 0 0 0 0 0 0 0 0 -0 0 0 0 0 -0 -0 -0 0 0 0 0 -0 0 0 -0 0 0 0 0 0 0 -0 0 0 0 -0 0 0 -0 0 0 0 0 0 0 0 0 
0 0 0 0 0 0 0 -0 -0 0 -0 0 0 0 0 0 0 0 0 0 0 -0 0 0 0 0 0 0 0 -0 0 0 0 0 0 0 0 0 0 0 0 0 0 0 0 0 0 0 0 1 
1 0 -0 0 -0 0 0 0 0 0 0 0 -0 0 0 0 0 0 0 0 0 0 0 0 0 0 0 0 0 0 0 0 0 0 0 -0 0 0 0 0 -0 -0 0 0 -0 0 0 0 0 0 
0 0 0 0 0 0 0 0 0 0 0 -0 0 0 0 0 0 -0 0 0 -0 0 0 0 0 0 0 0 0 0 0 0 0 0 0 0 0 0 0 0 0 0 0 -0 0 0 1 0 0 0 
0 -0 0 1 0 -0 0 0 0 0 0 0 0 0 0 0 0 0 0 0 0 0 0 0 0 -0 0 -0 -0 0 0 0 0 -0 0 0 -0 0 0 0 0 0 0 0 0 -0 0 0 -0 0 
0 0 0 0 0 0 0 -0 -0 0 0 0 0 -0 0 0 0 0 0 0 0 0 0 0 0 0 0 0 0 0 0 0 0 0 0 0 0 0 0 0 0 0 0 0 0 0 0 0 0 1 
0 -0 0 1 0 0 0 0 0 0 0 0 0 0 0 0 0 0 0 0 0 0 -0 0 0 -0 0 -0 -0 0 0 -0 0 -0 0 0 -0 0 0 0 0 0 0 0 0 -0 0 0 -0 0 
0 0 0 0 0 0 0 0 0 0 0 -0 0 0 0 0 -0 -0 0 0 -0 0 0 0 0 0 0 0 0 0 0 0 0 0 0 0 0 0 0 0 0 0 0 0 0 0 1 0 0 0 
0 0 0 0 -0 0 0 0 0 0 0 -0 0 0 0 0 0 0 0 0 0 0 0 0 0 0 0 0 0 0 0 0 0 0 0 -0 0 0 0 -0 0 0 0 0 1 0 0 0 0 0 
0 0 0 0 0 0 0 0 0 0 0 -0 0 0 0 0 -0 0 0 0 -0 0 0 -0 0 0 0 0 0 0 -0 0 0 0 0 0 0 0 0 0 0 0 -0 -0 0 0 1 0 0 0 
0 -0 0 1 0 0 0 0 -0 0 -0 0 0 0 0 0 0 0 0 0 0 -0 -0 0 0 -0 0 0 -0 0 0 -0 0 -0 0 0 -0 0 0 0 0 0 0 0 0 -0 0 0 -0 0 
0 0 0 0 0 0 0 0 0 0 0 0 0 -0 0 -0 -0 0 0 0 -0 0 0 -0 0 0 -0 0 0 0 0 0 0 0 0 0 0 -0 0 0 0 0 -0 -0 0 0 1 -0 0 0 
0 0 0 0 0 0 0 0 0 0 0 -0 0 0 0 0 0 0 0 0 0 0 0 0 0 0 0 0 0 0 -0 0 0 0 0 0 0 0 0 -0 0 0 -0 0 1 0 0 0 0 0 
0 0 0 0 0 0 -0 0 0 -0 0 0 0 0 0 0 0 0 0 0 0 0 0 0 0 0 0 0 0 0 -0 0 0 0 0 0 0 0 0 -0 0 0 0 0 1 0 0 0 0 0 
0 0 0 0 -0 0 0 0 0 0 0 -0 -0 0 0 0 0 -0 -0 0 -0 0 0 0 -0 0 0 0 0 0 0 0 0 0 0 0 0 0 0 0 0 -0 0 0 0 0 1 0 0 0 
1 0 -0 0 0 0 0 0 0 0 0 0 -0 0 0 0 0 0 -0 0 0 0 0 0 0 0 0 0 0 0 0 0 0 0 -0 0 0 0 0 0 -0 -0 0 0 0 0 0 0 0 0 
0 0 0 0 0 0 0 0 0 0 0 0 0 -0 0 -0 -0 0 0 0 0 0 0 0 0 0 -0 0 0 -0 0 0 0 0 0 0 0 -0 0 0 0 0 0 0 0 0 1 -0 0 0 
0 -0 0 1 0 -0 0 0 0 0 0 0 0 0 0 0 0 0 0 -0 0 0 0 0 -0 -0 0 -0 0 0 0 0 0 -0 -0 0 0 0 -0 0 0 0 0 0 0 -0 0 0 -0 0 
0 -0 0 1 0 -0 0 0 0 0 -0 0 0 0 0 0 0 0 0 0 0 -0 0 0 -0 -0 0 -0 -0 0 0 -0 0 -0 0 0 0 0 0 0 0 0 0 0 0 -0 0 0 -0 0 
0 -0 0 1 0 0 0 0 0 0 0 0 -0 0 0 0 0 -0 -0 0 0 0 0 0 -0 0 0 -0 0 0 0 0 0 -0 -0 0 0 0 0 0 0 -0 0 0 0 -0 0 0 0 0 
0 0 0 0 0 0 0 0 0 0 0 0 0 0 0 -0 -0 0 0 0 0 0 0 0 0 0 -0 0 0 0 0 0 0 0 0 0 0 -0 0 0 0 0 0 -0 0 0 1 -0 0 0 
0 0 0 0 0 0 0 0 -0 0 -0 0 0 0 0 0 0 0 0 0 0 -0 -0 0 0 0 0 0 0 0 0 0 0 0 0 0 0 0 0 0 0 0 0 0 0 0 0 0 0 1 
1 0 -0 0 -0 0 0 0 0 0 0 0 -0 0 0 0 0 0 -0 0 0 0 0 0 0 0 0 0 0 0 0 0 0 0 -0 -0 0 0 0 0 -0 -0 0 0 0 0 0 0 0 0 
0 0 0 0 -0 0 -0 0 0 0 0 -0 0 0 0 0 0 0 0 0 0 0 0 0 0 0 0 0 0 0 -0 0 0 0 0 -0 0 0 0 -0 0 0 0 0 1 0 0 0 0 0 
0 0 0 0 0 0 0 0 0 -0 0 0 0 0 0 0 0 0 0 0 0 0 0 0 0 0 0 0 0 0 -0 0 0 0 0 -0 0 0 0 -0 0 0 -0 0 1 0 0 0 0 0 
0 0 0 0 -0 0 0 0 0 0 0 -0 -0 0 0 0 0 0 0 0 0 0 0 0 0 0 0 0 0 0 0 0 0 0 0 -0 0 0 0 0 0 0 0 0 1 0 0 0 0 0 
0 -0 0 1 0 -0 0 0 -0 0 -0 0 0 0 0 0 0 0 0 0 0 -0 -0 0 0 -0 0 -0 -0 0 0 -0 0 -0 0 0 -0 0 0 0 0 0 0 0 0 -0 0 0 -0 0 
0 -0 -0 1 0 -0 0 0 0 0 0 0 0 0 -0 0 0 0 0 -0 0 0 0 0 0 -0 0 -0 0 0 0 0 -0 -0 -0 0 0 0 -0 0 0 0 0 0 0 -0 0 0 0 0 
0 0 0 0 0 0 0 -0 0 0 -0 0 0 0 0 0 0 0 0 0 0 -0 0 0 0 0 0 0 0 -0 0 0 0 0 0 0 0 0 0 0 0 0 0 0 0 0 0 0 0 1 
0 0 0 0 0 0 0 0 0 -0 0 -0 0 0 0 0 0 0 0 0 0 0 0 -0 0 0 0 0 0 0 -0 0 0 0 0 0 0 0 0 -0 0 0 -0 -0 1 0 0 0 0 0 
0 0 0 0 -0 0 0 0 0 0 0 -0 -0 0 0 0 0 -0 -0 0 -0 0 0 0 0 0 0 0 0 0 0 0 0 0 0 0 0 0 0 0 0 -0 0 0 1 0 0 0 0 0 
0 0 0 0 0 0 0 -0 -0 0 -0 0 0 0 0 0 0 0 0 0 0 -0 0 0 0 0 0 0 0 -0 0 0 0 0 0 0 0 0 0 0 0 0 0 0 0 0 0 0 0 1 
0 0 0 1 0 0 0 0 -0 0 -0 0 0 0 0 0 0 0 0 0 0 -0 -0 0 0 0 0 0 -0 0 0 -0 0 0 0 0 -0 0 0 0 0 0 0 0 0 0 0 0 0 -0 
0 0 0 0 -0 0 0 0 0 0 0 -0 0 0 0 0 0 0 0 0 0 0 0 0 0 0 0 0 0 0 -0 0 0 0 0 0 0 0 0 -0 0 0 -0 0 1 0 0 0 0 0 
0 0 0 0 0 0 0 0 0 0 0 -0 0 0 0 0 0 -0 0 0 -0 0 0 0 0 0 0 0 0 0 0 0 0 0 0 0 0 0 0 0 0 0 0 0 0 0 1 0 0 0 
0 -0 0 1 0 -0 0 0 0 0 0 0 0 0 0 0 0 0 -0 0 0 0 0 0 -0 0 0 -0 0 0 0 0 0 -0 -0 0 0 0 -0 0 0 -0 0 0 0 -0 0 0 0 0 
# y 50
1 0 0 1 0 0 -0 0 0 0 0 -0 0 0 0 0 -0 0 0 0 -0 0 0 0 0 0 0 0 0 0 0 0 0 0 -0 0 0 -0 0 0 0 0 0 0 1 0 1 0 0 1 